4
29
72
40	30
1	1	13	3	
2	4	8	8	9	6	6	6	22	2	
3	2	5	14	6	7	
4	3	4	8	14	4	10	2	
5	4	12	7	5	6	23	4	27	3	
6	4	5	5	27	4	23	4	8	4	
7	2	13	6	10	5	
8	2	10	6	8	5	
9	3	6	13	5	12	7	6	
10	2	7	14	8	3	
11	1	8	3	
12	3	8	11	12	5	23	3	
13	2	7	13	6	9	
14	4	11	7	6	7	4	7	18	3	
15	1	8	4	
16	1	8	6	
17	3	6	13	15	8	8	6	
18	2	6	4	12	3	
19	1	5	13	
20	2	7	5	11	4	
21	3	30	4	6	4	30	2	
22	3	9	5	13	4	24	3	
23	3	21	3	21	3	18	2	
24	4	5	10	21	4	18	4	18	3	
25	2	28	4	17	3	
26	3	28	3	21	3	15	2	
27	3	7	4	21	3	14	3	
28	1	14	6	
29	3	5	9	5	4	5	3	
